networks/zoo_66_635/zoo_66_635.txt
Number of groups: 29
Flow 2: {1 2} {2 7} {7 6} {6 5} {5 38} 
Flow 7: {10 43} 
Flow 9: {7 9} {9 13} {13 46} 
Flow 50: {25 24} {24 33} {33 32} {32 28} {28 61} 
Flow 56: {6 7} {7 2} {2 35} 
Flow 92: {11 12} {12 33} {33 31} {31 30} {30 63} 
Flow 95: {8 5} {5 6} {6 39} 
Flow 99: {8 7} {7 14} {14 47} 
Flow 121: {9 7} {7 8} {8 41} 
Flow 128: {19 18} {18 17} {17 50} 
Flow 161: {12 11} {11 14} {14 7} {7 40} 
Flow 188: {13 9} {9 10} {10 19} {19 15} {15 48} 
Flow 206: {12 45} 
Flow 218: {14 20} {20 26} {26 59} 
Flow 231: {22 21} {21 20} {20 14} {14 11} {11 44} 
Flow 234: {15 22} {22 23} {23 16} {16 49} 
Flow 242: {2 1} {1 4} {4 3} {3 25} {25 58} 
Flow 270: {18 19} {19 10} {10 9} {9 42} 
Flow 275: {17 16} {16 23} {23 22} {22 55} 
Flow 345: {21 22} {22 15} {15 19} {19 52} 
Flow 396: {16 17} {17 18} {18 51} 
Flow 481: {26 27} {27 28} {28 29} {29 62} 
Flow 483: {29 30} {30 31} {31 64} 
Flow 484: {28 32} {32 33} {33 66} 
Flow 527: {27 26} {26 20} {20 53} 
Flow 554: {20 21} {21 54} 
Flow 556: {31 33} {33 24} {24 57} 
Flow 564: {24 25} {25 3} {3 4} {4 1} {1 34} 
Flow 582: {30 29} {29 28} {28 27} {27 60} 
Flow 617: {33 12} {12 45} 
Time taken running everything: 10 seconds
