networks/zoo_66_635/zoo_66_635.sol
<?xml version = "1.0" encoding="UTF-8" standalone="yes"?>
<CPLEXSolution version="1.2">
 <header
   problemName="networks/zoo_66_635/zoo_66_635.lp"
   solutionName="incumbent"
   solutionIndex="-1"
   objectiveValue="29"
   solutionTypeValue="3"
   solutionTypeString="primal"
   solutionStatusValue="101"
   solutionStatusString="integer optimal solution"
   solutionMethodString="mip"
   primalFeasible="1"
   dualFeasible="1"
   MIPNodes="0"
   MIPIterations="5496"
   writeLevel="3"/>
 <quality
   epInt="1.0000000000000001e-05"
   epRHS="9.9999999999999995e-07"
   maxIntInfeas="4.2500007957357866e-09"
   maxPrimalInfeas="2.4000004650304163e-08"
   maxX="4.0000000170000032"
   maxSlack="10.000000017000003"/>
 <variables>
  <variable name="Y(2,5)" index="66" value="1"/>
  <variable name="Y(5,8)" index="255" value="1"/>
  <variable name="Y(8,11)" index="444" value="2.0937774183836269e-09"/>
  <variable name="Y(12,16)" index="697" value="-1.0000003047849759e-09"/>
  <variable name="Y(13,17)" index="760" value="0.99999999999999989"/>
  <variable name="Y(17,21)" index="1012" value="1"/>
  <variable name="Y(25,31)" index="1518" value="1"/>
  <variable name="Y(26,33)" index="1582" value="3.7499692240317017e-10"/>
  <variable name="Y(49,27)" index="3002" value="1"/>
  <variable name="Y(51,29)" index="3128" value="1"/>
  <variable name="Y(52,30)" index="3191" value="-1.000000082740371e-09"/>
  <variable name="Y(59,9)" index="3604" value="1"/>
  <variable name="Y(81,15)" index="4974" value="1"/>
  <variable name="Y(95,6)" index="5833" value="1"/>
  <variable name="Y(99,14)" index="6089" value="1"/>
  <variable name="Y(135,25)" index="8332" value="1"/>
  <variable name="Y(148,16)" index="9129" value="1.0000000010000003"/>
  <variable name="Y(153,28)" index="9451" value="1.0000000005"/>
  <variable name="Y(185,7)" index="11414" value="1"/>
  <variable name="Y(220,28)" index="13605" value="-5.000000413701855e-10"/>
  <variable name="Y(238,20)" index="14713" value="1"/>
  <variable name="Y(246,30)" index="15219" value="1.0000000010000001"/>
  <variable name="Y(257,19)" index="15890" value="1"/>
  <variable name="Y(260,22)" index="16079" value="-4.0000007750506947e-09"/>
  <variable name="Y(275,22)" index="17009" value="1.0000000042500008"/>
  <variable name="Y(321,22)" index="19861" value="-2.4999996517394142e-10"/>
  <variable name="Y(369,17)" index="22832" value="-1.6666253239713563e-10"/>
  <variable name="Y(389,10)" index="24065" value="1"/>
  <variable name="Y(391,13)" index="24192" value="1"/>
  <variable name="Y(429,26)" index="26561" value="1"/>
  <variable name="Y(472,17)" index="29218" value="1.6666253239713563e-10"/>
  <variable name="Y(493,11)" index="30514" value="1"/>
  <variable name="Y(530,24)" index="32821" value="1"/>
  <variable name="Y(536,33)" index="33202" value="-3.7499690610550353e-10"/>
  <variable name="Y(537,1)" index="33232" value="1"/>
  <variable name="Y(538,2)" index="33295" value="1"/>
  <variable name="Y(545,11)" index="33738" value="-2.0937774183836269e-09"/>
  <variable name="Y(563,33)" index="34876" value="1"/>
  <variable name="Y(617,12)" index="38203" value="1"/>
  <variable name="Y(623,18)" index="38581" value="1"/>
  <variable name="X(1,2,5)" index="39374" value="1"/>
  <variable name="X(1,4,135)" index="40139" value="1"/>
  <variable name="X(1,34,537)" index="41176" value="1"/>
  <variable name="X(2,1,135)" index="41409" value="1"/>
  <variable name="X(2,7,5)" index="41914" value="1"/>
  <variable name="X(2,35,538)" index="43082" value="1"/>
  <variable name="X(3,4,537)" index="43716" value="1"/>
  <variable name="X(3,25,135)" index="43949" value="1"/>
  <variable name="X(4,1,537)" index="44986" value="1"/>
  <variable name="X(4,3,135)" index="45219" value="1"/>
  <variable name="X(5,6,95)" index="45814" value="1"/>
  <variable name="X(5,38,2)" index="46356" value="1"/>
  <variable name="X(6,5,2)" index="46991" value="1"/>
  <variable name="X(6,7,59)" index="47683" value="1"/>
  <variable name="X(6,39,95)" index="48354" value="1"/>
  <variable name="X(7,2,538)" index="49432" value="1"/>
  <variable name="X(7,6,2)" index="49531" value="1"/>
  <variable name="X(7,8,5)" index="50169" value="1"/>
  <variable name="X(7,9,59)" index="50858" value="1"/>
  <variable name="X(7,14,99)" index="51533" value="1"/>
  <variable name="X(7,40,185)" index="52254" value="1"/>
  <variable name="X(8,5,95)" index="52799" value="1"/>
  <variable name="X(8,7,99)" index="53438" value="1"/>
  <variable name="X(8,41,5)" index="53979" value="1"/>
  <variable name="X(9,7,185)" index="54794" value="1"/>
  <variable name="X(9,10,623)" index="55867" value="1"/>
  <variable name="X(9,13,391)" index="56270" value="1"/>
  <variable name="X(9,42,59)" index="56573" value="1"/>
  <variable name="X(10,9,391)" index="57540" value="1"/>
  <variable name="X(10,19,623)" index="58407" value="1"/>
  <variable name="X(10,43,389)" index="58808" value="1"/>
  <variable name="X(11,12,153)" index="59207" value="1"/>
  <variable name="X(11,14,538)" index="60227" value="0.99999999774998105"/>
  <variable name="X(11,14,623)" index="60312" value="2.2500189356986479e-09"/>
  <variable name="X(11,44,8)" index="60332" value="2.0937774183836269e-09"/>
  <variable name="X(11,44,493)" index="60817" value="1"/>
  <variable name="X(11,44,545)" index="60869" value="-2.0937774183836269e-09"/>
  <variable name="X(12,11,453)" index="61412" value="-1.5624141952902162e-10"/>
  <variable name="X(12,11,538)" index="61497" value="1.0000000022500188"/>
  <variable name="X(12,11,545)" index="61504" value="-2.0937774183836269e-09"/>
  <variable name="X(12,33,153)" index="61747" value="1"/>
  <variable name="X(12,45,617)" index="62846" value="1"/>
  <variable name="X(13,9,185)" index="63049" value="1"/>
  <variable name="X(13,46,391)" index="63890" value="1"/>
  <variable name="X(14,7,485)" index="64619" value="-7.4998131252246492e-10"/>
  <variable name="X(14,7,538)" index="64672" value="1"/>
  <variable name="X(14,7,623)" index="64757" value="7.4998131252246523e-10"/>
  <variable name="X(14,11,493)" index="65262" value="1"/>
  <variable name="X(14,20,17)" index="65421" value="1"/>
  <variable name="X(14,47,99)" index="66138" value="1"/>
  <variable name="X(15,19,389)" index="67063" value="1"/>
  <variable name="X(15,22,238)" index="67547" value="1"/>
  <variable name="X(15,48,81)" index="68025" value="1"/>
  <variable name="X(16,17,257)" index="68836" value="1"/>
  <variable name="X(16,17,369)" index="68948" value="-1.6666253239713563e-10"/>
  <variable name="X(16,17,472)" index="69051" value="1.6666253239713563e-10"/>
  <variable name="X(16,23,260)" index="69474" value="-4.0000007750506947e-09"/>
  <variable name="X(16,23,275)" index="69489" value="1.0000000040000008"/>
  <variable name="X(16,49,12)" index="69861" value="-1.0000003047849759e-09"/>
  <variable name="X(16,49,148)" index="69997" value="1.0000000010000003"/>
  <variable name="X(17,16,12)" index="70496" value="-4.0000007750506947e-09"/>
  <variable name="X(17,16,275)" index="70759" value="1.0000000040000008"/>
  <variable name="X(17,18,257)" index="71376" value="1"/>
  <variable name="X(17,50,13)" index="71767" value="0.99999999999999989"/>
  <variable name="X(17,50,369)" index="72123" value="-1.6666253239713563e-10"/>
  <variable name="X(17,50,472)" index="72226" value="1.6666253239713563e-10"/>
  <variable name="X(18,17,13)" index="72402" value="1"/>
  <variable name="X(18,19,257)" index="73281" value="1"/>
  <variable name="X(18,51,623)" index="74282" value="1"/>
  <variable name="X(19,10,389)" index="74683" value="1"/>
  <variable name="X(19,15,81)" index="75010" value="1"/>
  <variable name="X(19,18,623)" index="76187" value="1"/>
  <variable name="X(19,52,257)" index="76456" value="1"/>
  <variable name="X(20,14,485)" index="77319" value="-3.000000248221113e-09"/>
  <variable name="X(20,14,493)" index="77327" value="1.0000000030000002"/>
  <variable name="X(20,21,17)" index="77486" value="1"/>
  <variable name="X(20,26,49)" index="78153" value="1"/>
  <variable name="X(20,53,238)" index="78977" value="1"/>
  <variable name="X(21,20,238)" index="79612" value="1"/>
  <variable name="X(21,22,148)" index="80157" value="1.0000000009999999"/>
  <variable name="X(21,22,321)" index="80330" value="-9.9999986069576566e-10"/>
  <variable name="X(21,54,17)" index="80661" value="1"/>
  <variable name="X(22,15,389)" index="81668" value="1"/>
  <variable name="X(22,21,238)" index="82152" value="1"/>
  <variable name="X(22,23,148)" index="82697" value="1.0000000020000004"/>
  <variable name="X(22,23,369)" index="82918" value="-2.0000003875253473e-09"/>
  <variable name="X(22,55,260)" index="83444" value="-4.0000007750506947e-09"/>
  <variable name="X(22,55,275)" index="83459" value="1.0000000042500008"/>
  <variable name="X(22,55,321)" index="83505" value="-2.4999996517394142e-10"/>
  <variable name="X(23,16,148)" index="83967" value="1"/>
  <variable name="X(23,16,369)" index="84188" value="-4.9998759719140688e-10"/>
  <variable name="X(23,16,472)" index="84291" value="4.9998759719140688e-10"/>
  <variable name="X(23,22,260)" index="84714" value="-4.0000007750506947e-09"/>
  <variable name="X(23,22,275)" index="84729" value="1.0000000040000008"/>
  <variable name="X(24,25,537)" index="85626" value="1"/>
  <variable name="X(24,33,25)" index="85749" value="1"/>
  <variable name="X(24,33,26)" index="85750" value="1.4999876244220141e-09"/>
  <variable name="X(24,33,52)" index="85776" value="-1.000000082740371e-09"/>
  <variable name="X(24,33,453)" index="86177" value="-4.9998754168164324e-10"/>
  <variable name="X(24,57,530)" index="86889" value="1"/>
  <variable name="X(25,3,537)" index="87531" value="1"/>
  <variable name="X(25,24,25)" index="87654" value="1.0000000020000002"/>
  <variable name="X(25,24,453)" index="88082" value="-2.000000165480742e-09"/>
  <variable name="X(25,58,135)" index="88399" value="1"/>
  <variable name="X(26,20,493)" index="89392" value="1"/>
  <variable name="X(26,27,49)" index="89583" value="1"/>
  <variable name="X(26,59,429)" index="90598" value="1"/>
  <variable name="X(27,26,429)" index="91233" value="1"/>
  <variable name="X(27,28,220)" index="91659" value="-2.000000165480742e-09"/>
  <variable name="X(27,28,246)" index="91685" value="1.0000000020000002"/>
  <variable name="X(27,60,49)" index="92123" value="1"/>
  <variable name="X(28,27,429)" index="93138" value="1"/>
  <variable name="X(28,29,246)" index="93590" value="1"/>
  <variable name="X(28,32,530)" index="94509" value="1"/>
  <variable name="X(28,61,153)" index="94767" value="1.0000000005"/>
  <variable name="X(28,61,220)" index="94834" value="-5.000000413701855e-10"/>
  <variable name="X(29,28,530)" index="95779" value="1"/>
  <variable name="X(29,30,246)" index="96130" value="1.0000000010000001"/>
  <variable name="X(29,30,483)" index="96367" value="-1.000000082740371e-09"/>
  <variable name="X(29,62,51)" index="96570" value="1"/>
  <variable name="X(30,29,51)" index="97205" value="1"/>
  <variable name="X(30,31,563)" index="98352" value="1"/>
  <variable name="X(30,63,52)" index="98476" value="-1.000000082740371e-09"/>
  <variable name="X(30,63,246)" index="98670" value="1.0000000010000001"/>
  <variable name="X(31,30,51)" index="99110" value="1.0000000010000001"/>
  <variable name="X(31,30,52)" index="99111" value="-1.000000082740371e-09"/>
  <variable name="X(31,33,563)" index="100257" value="1"/>
  <variable name="X(31,64,25)" index="100354" value="1"/>
  <variable name="X(32,28,153)" index="101117" value="1"/>
  <variable name="X(32,33,530)" index="102129" value="1"/>
  <variable name="X(33,12,453)" index="102687" value="-6.2498130225803965e-10"/>
  <variable name="X(33,12,617)" index="102851" value="1.0000000006249814"/>
  <variable name="X(33,24,530)" index="103399" value="1"/>
  <variable name="X(33,31,25)" index="103529" value="1"/>
  <variable name="X(33,31,51)" index="103555" value="1.000000082740371e-09"/>
  <variable name="X(33,31,52)" index="103556" value="-1.000000082740371e-09"/>
  <variable name="X(33,32,153)" index="104292" value="1"/>
  <variable name="X(33,66,26)" index="104800" value="3.7499692240317017e-10"/>
  <variable name="X(33,66,536)" index="105310" value="-3.7499690610550353e-10"/>
  <variable name="X(33,66,563)" index="105337" value="1"/>
  <variable name="C(2,6)" index="105415" value="1"/>
  <variable name="C(2,5)" index="105416" value="2"/>
  <variable name="C(5,2)" index="105425" value="1"/>
  <variable name="C(5,7)" index="105426" value="2"/>
  <variable name="C(5,8)" index="105427" value="3"/>
  <variable name="C(12,16)" index="105466" value="-4.0000007750506947e-09"/>
  <variable name="C(13,17)" index="105474" value="1"/>
  <variable name="C(17,20)" index="105497" value="1"/>
  <variable name="C(17,21)" index="105498" value="2"/>
  <variable name="C(25,24)" index="105551" value="1.0000000020000002"/>
  <variable name="C(25,33)" index="105552" value="2.0000000020000002"/>
  <variable name="C(25,31)" index="105553" value="3.0000000020000002"/>
  <variable name="C(26,33)" index="105559" value="1.4999876244220141e-09"/>
  <variable name="C(49,26)" index="105696" value="1"/>
  <variable name="C(49,27)" index="105697" value="2"/>
  <variable name="C(51,31)" index="105710" value="1.000000082740371e-09"/>
  <variable name="C(51,30)" index="105711" value="1.0000000020000002"/>
  <variable name="C(51,29)" index="105712" value="2.0000000020000002"/>
  <variable name="C(52,33)" index="105717" value="-1.000000082740371e-09"/>
  <variable name="C(52,31)" index="105718" value="-2.000000165480742e-09"/>
  <variable name="C(52,30)" index="105719" value="-3.000000248221113e-09"/>
  <variable name="C(59,7)" index="105747" value="1"/>
  <variable name="C(59,9)" index="105748" value="2"/>
  <variable name="C(81,15)" index="105865" value="1"/>
  <variable name="C(95,8)" index="105937" value="2"/>
  <variable name="C(95,5)" index="105938" value="3"/>
  <variable name="C(95,6)" index="105939" value="4"/>
  <variable name="C(99,7)" index="105950" value="1"/>
  <variable name="C(99,14)" index="105951" value="2"/>
  <variable name="C(135,1)" index="106124" value="1"/>
  <variable name="C(135,4)" index="106125" value="2"/>
  <variable name="C(135,3)" index="106126" value="3"/>
  <variable name="C(135,25)" index="106127" value="4"/>
  <variable name="C(148,22)" index="106205" value="1.0000000009999999"/>
  <variable name="C(148,23)" index="106206" value="2.0000000030000002"/>
  <variable name="C(148,16)" index="106207" value="3.0000000030000002"/>
  <variable name="C(153,12)" index="106227" value="1"/>
  <variable name="C(153,33)" index="106228" value="2"/>
  <variable name="C(153,32)" index="106229" value="3"/>
  <variable name="C(153,28)" index="106230" value="4"/>
  <variable name="C(185,9)" index="106386" value="1"/>
  <variable name="C(185,7)" index="106387" value="2"/>
  <variable name="C(220,28)" index="106548" value="-2.000000165480742e-09"/>
  <variable name="C(238,15)" index="106630" value="1.0000000000000018"/>
  <variable name="C(238,22)" index="106631" value="2.0000000000000018"/>
  <variable name="C(238,21)" index="106632" value="3.0000000000000018"/>
  <variable name="C(238,20)" index="106633" value="4.0000000000000018"/>
  <variable name="C(246,28)" index="106685" value="1.0000000020000002"/>
  <variable name="C(246,29)" index="106686" value="2.0000000020000002"/>
  <variable name="C(246,30)" index="106687" value="3.0000000030000002"/>
  <variable name="C(257,17)" index="106761" value="1"/>
  <variable name="C(257,18)" index="106762" value="2"/>
  <variable name="C(257,19)" index="106763" value="3"/>
  <variable name="C(260,23)" index="106774" value="-4.0000007750506947e-09"/>
  <variable name="C(260,22)" index="106775" value="-8.0000015501013893e-09"/>
  <variable name="C(275,17)" index="106878" value="1.0000000050000009"/>
  <variable name="C(275,16)" index="106879" value="2.0000000090000016"/>
  <variable name="C(275,23)" index="106880" value="3.0000000130000024"/>
  <variable name="C(275,22)" index="106881" value="4.0000000170000032"/>
  <variable name="C(321,22)" index="107132" value="-9.9999986069576566e-10"/>
  <variable name="C(369,23)" index="107371" value="-2.0000003875253473e-09"/>
  <variable name="C(369,16)" index="107372" value="-2.4999879847167541e-09"/>
  <variable name="C(369,17)" index="107373" value="-2.6666505171138898e-09"/>
  <variable name="C(389,15)" index="107492" value="1"/>
  <variable name="C(389,19)" index="107493" value="2"/>
  <variable name="C(389,10)" index="107494" value="3"/>
  <variable name="C(391,9)" index="107506" value="1"/>
  <variable name="C(391,13)" index="107507" value="2.0000000020000002"/>
  <variable name="C(429,27)" index="107751" value="1"/>
  <variable name="C(429,26)" index="107752" value="2"/>
  <variable name="C(453,24)" index="107906" value="-2.000000165480742e-09"/>
  <variable name="C(453,33)" index="107907" value="-2.4999877071623851e-09"/>
  <variable name="C(453,12)" index="107908" value="-6.2498130225803965e-10"/>
  <variable name="C(472,16)" index="108008" value="4.9998759719140688e-10"/>
  <variable name="C(472,17)" index="108009" value="6.6665012958854251e-10"/>
  <variable name="C(483,30)" index="108056" value="-1.000000082740371e-09"/>
  <variable name="C(483,31)" index="108057" value="-1.000000082740371e-09"/>
  <variable name="C(485,14)" index="108066" value="-3.000000248221113e-09"/>
  <variable name="C(493,20)" index="108115" value="1"/>
  <variable name="C(493,14)" index="108116" value="2.0000000030000002"/>
  <variable name="C(493,11)" index="108117" value="3.0000000030000002"/>
  <variable name="C(530,28)" index="108358" value="1"/>
  <variable name="C(530,32)" index="108359" value="2"/>
  <variable name="C(530,33)" index="108360" value="3"/>
  <variable name="C(530,24)" index="108361" value="4"/>
  <variable name="C(537,25)" index="108386" value="1"/>
  <variable name="C(537,3)" index="108387" value="2.0000000030000002"/>
  <variable name="C(537,4)" index="108388" value="3.0000000030000002"/>
  <variable name="C(537,1)" index="108389" value="4.0000000029999994"/>
  <variable name="C(538,11)" index="108394" value="1.0000000022500188"/>
  <variable name="C(538,14)" index="108395" value="2"/>
  <variable name="C(538,7)" index="108396" value="3"/>
  <variable name="C(538,2)" index="108397" value="4"/>
  <variable name="C(545,11)" index="108451" value="-2.0937774183836269e-09"/>
  <variable name="C(563,31)" index="108565" value="1"/>
  <variable name="C(563,33)" index="108566" value="2"/>
  <variable name="C(617,12)" index="108873" value="1.0000000006249814"/>
  <variable name="C(623,14)" index="108915" value="2.2500189356986479e-09"/>
  <variable name="C(623,7)" index="108916" value="3.000000248221113e-09"/>
  <variable name="C(623,9)" index="108917" value="3.000000248221113e-09"/>
  <variable name="C(623,10)" index="108918" value="1.0000000030000002"/>
  <variable name="C(623,19)" index="108919" value="2.0000000030000002"/>
  <variable name="C(623,18)" index="108920" value="3.0000000030000002"/>
 </variables>
</CPLEXSolution>
